data;

param w := 35;
param n := 22;
param min_h := 35;
param max_h := 52;

set BLOCKS := 1 2 3 4 5 6 7 8 9 10 11 12 13 14 15 16 17 18 19 20 21 22 ;

param:	width	height :=
	1	14	35
	2	4	23
	3	4	20
	4	4	17
	5	3	22
	6	3	19
	7	4	12
	8	3	12
	9	4	8
	10	3	10
	11	4	7
	12	3	9
	13	4	6
	14	3	8
	15	3	7
	16	4	5
	17	3	6
	18	4	4
	19	3	5
	20	3	4
	21	4	3
	22	3	3;